; benchmark generated from python API
(set-info :status unknown)
(declare-datatypes ((RealState 0)) (((RMk1 (rval1 Real)) (RMk2 (rval2 Real)))))
 (declare-fun xuscore2dollarskuscore45 () Real)
(declare-fun t27uscore0dollarskuscore3 () Real)
(declare-fun yuscore2dollarskuscore53 () Real)
(declare-fun stuscore2dollarskuscore53 () Real)
(assert
 (let (($x8 (exists ((ts27uscore3_st RealState) (val!46 Real) )(let (($x160 (<= (+ (* (- 2.0) t27uscore0dollarskuscore3) yuscore2dollarskuscore53) (+ 10.0 (+ t27uscore0dollarskuscore3 xuscore2dollarskuscore45)))))
 (let (($x124 (<= yuscore2dollarskuscore53 (+ 10.0 xuscore2dollarskuscore45))))
 (let (($x58 (>= yuscore2dollarskuscore53 (- 5.0 (* 2.0 xuscore2dollarskuscore45)))))
 (let (($x183 (<= yuscore2dollarskuscore53 12.0)))
 (let (($x92 (>= yuscore2dollarskuscore53 1.0)))
 (let (($x133 (= stuscore2dollarskuscore53 2.0)))
 (let (($x26 (> yuscore2dollarskuscore53 5.0)))
 (let (($x162 (>= t27uscore0dollarskuscore3 0.0)))
 (let (($x172 (and (<= 0.0 (rval2 ts27uscore3_st)) (<= (rval2 ts27uscore3_st) t27uscore0dollarskuscore3))))
 (let (($x50 (=> $x172 (>= (+ (* (- 2.0) (rval2 ts27uscore3_st)) yuscore2dollarskuscore53) 5.0))))
 (let (($x115 (= stuscore2dollarskuscore53 1.0)))
 (let (($x53 (and (and (and (and (and (and $x115 $x50) $x162) $x26) $x133) $x92) $x183)))
 (let (($x94 (not (= ts27uscore3_st (RMk1 val!46)))))
 (and $x94 (=> (and (and $x53 $x58) $x124) $x160))))))))))))))))
 ))
 (not $x8)))
(check-sat)
